
Gurobi 11.0.1 (win64) logging started Mon May 13 14:47:09 2024

Set parameter LogFile to value "output/solver_log18.txt"
Gurobi Optimizer version 11.0.1 build v11.0.1rc0 (win64 - Windows 11.0 (22631.2))

CPU model: 11th Gen Intel(R) Core(TM) i7-1165G7 @ 2.80GHz, instruction set [SSE2|AVX|AVX2|AVX512]
Thread count: 4 physical cores, 8 logical processors, using up to 8 threads

Optimize a model with 1526 rows, 669 columns and 27763 nonzeros
Model fingerprint: 0x14b5c450
Variable types: 88 continuous, 581 integer (581 binary)
Coefficient statistics:
  Matrix range     [4e-01, 1e+05]
  Objective range  [1e+00, 1e+02]
  Bounds range     [1e+00, 1e+00]
  RHS range        [1e-02, 1e+05]

User MIP start produced solution with objective 57250 (0.00s)
User MIP start produced solution with objective 57250 (0.00s)
Loaded user MIP start with objective 57250

Presolve removed 305 rows and 309 columns
Presolve time: 0.02s
Presolved: 1221 rows, 360 columns, 25125 nonzeros
Variable types: 83 continuous, 277 integer (276 binary)

Root relaxation: objective 5.854138e+04, 476 iterations, 0.02 seconds (0.04 work units)

    Nodes    |    Current Node    |     Objective Bounds      |     Work
 Expl Unexpl |  Obj  Depth IntInf | Incumbent    BestBd   Gap | It/Node Time

     0     0 58541.3796    0   52 57250.0168 58541.3796  2.26%     -    0s
     0     0 58541.3796    0   40 57250.0168 58541.3796  2.26%     -    0s
     0     2 58541.3796    0   40 57250.0168 58541.3796  2.26%     -    0s
  1387  1031 58383.2653   56   40 57250.0168 58541.3796  2.26%   122    5s
  2299  1607 58033.5410   85   49 57250.0168 58541.3796  2.26%   127   10s
  3926  1871 57544.6673   45   51 57250.0168 58541.3796  2.26%   117   16s
  5369  2586 58116.2960   38   49 57250.0168 58541.3796  2.26%   107   20s
  7269  3653     cutoff   44      57250.0168 58541.3796  2.26%   111   25s
  7972  3933 infeasible   77      57250.0168 58541.3796  2.26%   112   30s
  9821  5132 infeasible   40      57250.0168 58541.3796  2.26%   114   35s
 12564  6247 58060.0795   38   46 57250.0168 58541.3796  2.26%   113   40s
 13189  6316 58541.3739   46   49 57250.0168 58541.3796  2.26%   116   47s
 13962  6853 57411.4496   69   40 57250.0168 58541.3796  2.26%   114   50s
 17099  8236 57268.1771   82   26 57250.0168 58541.3796  2.26%   113   55s
 19897  9322 57573.3978   59   47 57250.0168 58541.3796  2.26%   115   60s

Cutting planes:
  Inf proof: 1

Explored 20052 nodes (2321165 simplex iterations) in 60.01 seconds (161.63 work units)
Thread count was 8 (of 8 available processors)

Solution count 2: 57250 57250 

Time limit reached
Best objective 5.725001675792e+04, best bound 5.854137963696e+04, gap 2.2557%
